\ This file has been generated by DOcplex
\ ENCODING=ISO-8859-1
\Problem name: random_problem.lp

Minimize
 obj: 84 x0 + 42 x1 + 21 x2 + 36 x3 + 18 x4 + 9 x5 + 72 x6 + 36 x7 + 18 x8
      + 1124 x9 + 562 x10 + 281 x11 + [ 4576 x0^2 + 4576 x0*x1 + 2288 x0*x2
      + 3072 x0*x3 + 1536 x0*x4 + 768 x0*x5 + 2560 x0*x6 + 1280 x0*x7
      + 640 x0*x8 + 1600 x0*x9 + 800 x0*x10 + 400 x0*x11 + 1144 x1^2
      + 1144 x1*x2 + 1536 x1*x3 + 768 x1*x4 + 384 x1*x5 + 1280 x1*x6 + 640 x1*x7
      + 320 x1*x8 + 800 x1*x9 + 400 x1*x10 + 200 x1*x11 + 286 x2^2 + 768 x2*x3
      + 384 x2*x4 + 192 x2*x5 + 640 x2*x6 + 320 x2*x7 + 160 x2*x8 + 400 x2*x9
      + 200 x2*x10 + 100 x2*x11 + 3328 x3^2 + 3328 x3*x4 + 1664 x3*x5
      + 3712 x3*x6 + 1856 x3*x7 + 928 x3*x8 + 1472 x3*x9 + 736 x3*x10
      + 368 x3*x11 + 832 x4^2 + 832 x4*x5 + 1856 x4*x6 + 928 x4*x7 + 464 x4*x8
      + 736 x4*x9 + 368 x4*x10 + 184 x4*x11 + 208 x5^2 + 928 x5*x6 + 464 x5*x7
      + 232 x5*x8 + 368 x5*x9 + 184 x5*x10 + 92 x5*x11 + 2848 x6^2 + 2848 x6*x7
      + 1424 x6*x8 + 2304 x6*x9 + 1152 x6*x10 + 576 x6*x11 + 712 x7^2
      + 712 x7*x8 + 1152 x7*x9 + 576 x7*x10 + 288 x7*x11 + 178 x8^2 + 576 x8*x9
      + 288 x8*x10 + 144 x8*x11 + 2432 x9^2 + 2432 x9*x10 + 1216 x9*x11
      + 608 x10^2 + 608 x10*x11 + 152 x11^2 ]/2
Subject To
 c0: 4 x0 + 2 x1 + x2 + 4 x3 + 2 x4 + x5 + 4 x6 + 2 x7 + x8 + 4 x9 + 2 x10 + x11
      = 7

Bounds
 0 <= x0 <= 1
 0 <= x1 <= 1
 0 <= x2 <= 1
 0 <= x3 <= 1
 0 <= x4 <= 1
 0 <= x5 <= 1
 0 <= x6 <= 1
 0 <= x7 <= 1
 0 <= x8 <= 1
 0 <= x9 <= 1
 0 <= x10 <= 1
 0 <= x11 <= 1

Binaries
 x0 x1 x2 x3 x4 x5 x6 x7 x8 x9 x10 x11
End
